NAME : P-n40-k5.vrp.458.tour
COMMENT : Cost = 0_458
COMMENT : Found by LKH [Keld Helsgaun] Wed Sep 13 11:52:33 2017
TYPE : TOUR
DIMENSION : 44
TOUR_SECTION
1
12
17
30
22
35
31
10
39
44
13
18
38
16
34
40
11
6
41
33
3
21
36
37
4
29
23
2
42
28
9
32
27
8
24
25
7
43
19
5
20
14
26
15
-1
EOF
